20	5
0	7	10	2	12	7	16	3	1
1	1	9
2	1	5
3	1	20
4	2	19	5
5	1	21
6	2	19	13
7	1	16
8	1	14
9	1	15
10	2	15	7
11	1	18
12	0
13	1	17
14	1	4
15	1	8
16	1	6
17	1	21
18	1	21
19	1	21
20	1	21
21	0
0	0	0	0	0	0	0
1	1	1	2	3	2	4
2	4	4	5	2	4	1
3	6	4	4	4	1	1
4	7	2	5	2	3	5
5	9	1	1	2	5	1
6	4	5	3	4	4	2
7	2	1	4	2	3	3
8	3	4	5	5	4	4
9	7	2	5	4	5	1
10	1	4	1	5	2	4
11	4	4	2	4	1	1
12	6	1	5	5	4	3
13	9	4	1	4	4	2
14	9	5	1	2	4	5
15	4	2	2	4	4	4
16	9	4	2	5	2	4
17	5	3	5	5	3	2
18	1	3	5	5	5	5
19	6	2	5	3	4	1
20	2	1	3	2	4	2
21	0	0	0	0	0	0
5	5	5	5	5
